(set-info :source  loris-7.ddns.comp.nus.edu.sg/~project/hip/) 
;Variables declarations
(declare-fun right_90_4877_primed () Int)
(declare-fun left_90_4876_primed () Int)
(declare-fun color_90_4875_primed () Int)
(declare-fun val_90_4874_primed () Int)
(declare-fun v_13638 () Int)
(declare-fun x () Int)
(declare-fun x_primed () Int)
(declare-fun v_bool_87_4884_primed () Int)
(declare-fun bh () Int)
(declare-fun n () Int)
(declare-fun cl () Int)
(declare-fun flted_13_13637 () Int)
(declare-fun Anon_13641 () Int)
(declare-fun bhl_13642 () Int)
(declare-fun nl_13640 () Int)
(declare-fun l_13639 () Int)
(declare-fun Anon_13645 () Int)
(declare-fun bhr_13646 () Int)
(declare-fun nr_13644 () Int)
(declare-fun r_13643 () Int)
;Relations declarations
;Axioms assertions
;Antecedent
(assert (= right_90_4877_primed r_13643))
(assert (= left_90_4876_primed l_13639))
(assert (= color_90_4875_primed flted_13_13637))
(assert (= val_90_4874_primed v_13638))
(assert (= x_primed x))
(assert (> x_primed 0))
(assert (not (> v_bool_87_4884_primed 0)))
(assert (= bh (+ bhl_13642 1)))
(assert (= bhl_13642 bhr_13646))
(assert (= n (+ (+ nr_13644 1) nl_13640)))
(assert (= cl 0))
(assert (= flted_13_13637 0))
(assert (or (and (and (and (= Anon_13641 0) (<= 2 bhl_13642)) (<= 1 nl_13640)) (> l_13639 0)) (or (and (and (and (< l_13639 1) (= nl_13640 0)) (= bhl_13642 1)) (= Anon_13641 0)) (and (and (and (= Anon_13641 1) (<= 1 bhl_13642)) (<= 1 nl_13640)) (> l_13639 0)))))
(assert (or (and (and (and (= Anon_13645 0) (<= 2 bhr_13646)) (<= 1 nr_13644)) (> r_13643 0)) (or (and (and (and (< r_13643 1) (= nr_13644 0)) (= bhr_13646 1)) (= Anon_13645 0)) (and (and (and (= Anon_13645 1) (<= 1 bhr_13646)) (<= 1 nr_13644)) (> r_13643 0)))))
;Negation of Consequence
(assert (not false))
(check-sat)